1 63 48 71 99 87 8 79 57 46 43 32 35 25 
15 41 95 54 
92 45 69 38 81 90 84 86 10 72 
65 52 28 5 30 31 50 51 66 55 
18 19 
12 75 29 73 67 53 49 22 56 96 17 7 77 91 
36 39 14 23 16 11 26 94 6 97 37 83 59 24 58 93 
3 33 64 62 27 44 61 9 78 34 20 21 13 4 89 85 80 
42 47 88 68 100 
60 
40 2 
76 74 82 98 70 

